(set-logic UF)
(declare-sort Set 0)
(declare-sort Elem 0)
(declare-fun member (Elem Set) Bool)
(declare-fun subset (Set Set) Bool)
(declare-fun seteq (Set Set) Bool)
(declare-fun union (Set Set) Set)
(declare-fun intersection (Set Set) Set)
(declare-fun difference (Set Set) Set)
(declare-fun a () Set)
(declare-fun b () Set)
(declare-fun c () Set)
(assert (not (= (seteq (union (difference c a) (difference c b)) (difference c (intersection a b))) (and (subset (union (difference c a) (difference c b)) (difference c (intersection a b))) (subset (difference c (intersection a b)) (union (difference c a) (difference c b)))))))
(assert (forall ((?s1 Set) (?s2 Set)) (= (seteq ?s1 ?s2) (and (subset ?s1 ?s2) (subset ?s2 ?s1)))))
(assert (or (not (forall ((?s1 Set) (?s2 Set)) (= (seteq ?s1 ?s2) (and (subset ?s1 ?s2) (subset ?s2 ?s1))))) (= (seteq (union (difference c a) (difference c b)) (difference c (intersection a b))) (and (subset (union (difference c a) (difference c b)) (difference c (intersection a b))) (subset (difference c (intersection a b)) (union (difference c a) (difference c b)))))))
(check-sat)
(exit)
